myproject/instances/20nodes/rnd42_20.tsp
NAME : rnd42_20.tsp
TYPE : TSP
DIMENSION : 20
EDGE_WEIGHT_TYPE : EUC_2D
NODE_COORD_SECTION
1 668 44
2 777 932
3 477 597
4 476 148
5 572 987
6 94 886
7 223 122
8 846 18
9 224 888
10 519 136
11 22 607
12 600 531
13 98 651
14 516 660
15 613 479
16 232 798
17 354 407
18 916 804
19 345 462
20 265 155
