myproject/instances/20nodes/rnd42_20.opt.tour
NAME : rnd42_20.tsp.tsp.opt.tour
TYPE : TOUR
DIMENSION : 20
TOUR_SECTION
1
8
15
12
3
14
18
2
5
16
9
6
13
11
19
17
20
7
4
10
-1